presolving:
(round 1, fast)       10555 del vars, 19681 del conss, 0 add conss, 19573 chg bounds, 9517 chg sides, 0 chg coeffs, 0 upgd conss, 0 impls, 8425 clqs
(round 2, fast)       10555 del vars, 20355 del conss, 0 add conss, 19573 chg bounds, 9517 chg sides, 0 chg coeffs, 0 upgd conss, 0 impls, 8425 clqs
   (0.6s) running MILP presolver
   (0.6s) MILP presolver found nothing
(round 3, exhaustive) 10557 del vars, 20355 del conss, 0 add conss, 19573 chg bounds, 9517 chg sides, 0 chg coeffs, 337 upgd conss, 0 impls, 8425 clqs
(round 4, exhaustive) 10557 del vars, 20355 del conss, 0 add conss, 19573 chg bounds, 9517 chg sides, 0 chg coeffs, 8762 upgd conss, 0 impls, 8425 clqs
   (0.7s) probing: 51/8450 (0.6%) - 0 fixings, 0 aggregations, 0 implications, 0 bound changes
   (0.7s) probing aborted: 50/50 successive totally useless probings
   (0.7s) symmetry computation started: requiring (bin +, int -, cont +), (fixed: bin -, int +, cont -)
   (0.7s) no symmetry present
presolving (5 rounds: 5 fast, 3 medium, 3 exhaustive):
 10557 deleted vars, 20355 deleted constraints, 0 added constraints, 19573 tightened bounds, 0 added holes, 9517 changed sides, 0 changed coefficients
 0 implications, 8425 cliques
presolved problem has 8450 variables (8450 bin, 0 int, 0 impl, 0 cont) and 8762 constraints
   8425 constraints of type <setppc>
    337 constraints of type <logicor>
Presolving Time: 0.66

 time | node  | left  |LP iter|LP it/n|mem/heur|mdpt |vars |cons |rows |cuts |sepa|confs|strbr|  dualbound   | primalbound  |  gap   | compl. 
t 0.8s|     1 |     0 |     0 |     - | trivial|   0 |8450 |8762 |   0 |   0 |  0 |   0 |   0 |-9.500655e+06 |-1.786976e+07 |  88.09%| unknown
t 0.8s|     1 |     0 |     0 |     - | trivial|   0 |8450 |8762 |   0 |   0 |  0 |   0 |   0 |-9.500655e+06 |-1.231346e+07 |  29.61%| unknown
p 0.8s|     1 |     0 |     0 |     - |  clique|   0 |8450 |8762 |8762 |   0 |  0 |   0 |   0 |-9.500655e+06 |-9.828040e+06 |   3.45%| unknown
  1.4s|     1 |     0 |  1571 |     - |   123M |   0 |8450 |8762 |8762 |   0 |  0 |   1 |   0 |-9.722440e+06 |-9.828040e+06 |   1.09%| unknown
r 1.4s|     1 |     0 |  1571 |     - |rounding|   0 |8450 |8762 |8762 |   0 |  0 |   1 |   0 |-9.722440e+06 |-9.737680e+06 |   0.16%| unknown
  3.9s|     1 |     0 |  1629 |     - |   128M |   0 |8450 |8762 |8766 |   4 |  1 |   1 |   0 |-9.722462e+06 |-9.737680e+06 |   0.16%| unknown
  6.6s|     1 |     0 |  1686 |     - |   129M |   0 |8450 |8762 |8773 |  11 |  2 |   1 |   0 |-9.722520e+06 |-9.737680e+06 |   0.16%| unknown
  8.9s|     1 |     0 |  1773 |     - |   131M |   0 |8450 |8762 |8779 |  17 |  3 |   1 |   0 |-9.722546e+06 |-9.737680e+06 |   0.16%| unknown
 16.8s|     1 |     0 |  1820 |     - |   139M |   0 |8450 |8762 |8782 |  20 |  4 |   1 |   0 |-9.722566e+06 |-9.737680e+06 |   0.16%| unknown
 21.3s|     1 |     0 |  1958 |     - |   144M |   0 |8450 |8762 |8795 |  33 |  5 |   1 |   0 |-9.722599e+06 |-9.737680e+06 |   0.16%| unknown
 30.1s|     1 |     0 |  2146 |     - |   149M |   0 |8450 |8762 |8800 |  38 |  6 |   1 |   0 |-9.722638e+06 |-9.737680e+06 |   0.15%| unknown
 33.9s|     1 |     0 |  2290 |     - |   152M |   0 |8450 |8762 |8806 |  44 |  7 |   1 |   0 |-9.722655e+06 |-9.737680e+06 |   0.15%| unknown
 38.0s|     1 |     0 |  2445 |     - |   154M |   0 |8450 |8762 |8810 |  48 |  8 |   1 |   0 |-9.722673e+06 |-9.737680e+06 |   0.15%| unknown
 44.6s|     1 |     0 |  2569 |     - |   161M |   0 |8450 |8762 |8812 |  50 |  9 |   1 |   0 |-9.722689e+06 |-9.737680e+06 |   0.15%| unknown
 45.3s|     1 |     0 |  2714 |     - |   163M |   0 |8450 |8762 |8818 |  56 | 10 |   1 |   0 |-9.722704e+06 |-9.737680e+06 |   0.15%| unknown
 time | node  | left  |LP iter|LP it/n|mem/heur|mdpt |vars |cons |rows |cuts |sepa|confs|strbr|  dualbound   | primalbound  |  gap   | compl. 
 45.6s|     1 |     0 |  2778 |     - |   164M |   0 |8450 |8762 |8820 |  58 | 11 |   1 |   0 |-9.722706e+06 |-9.737680e+06 |   0.15%| unknown
 45.9s|     1 |     0 |  2921 |     - |   165M |   0 |8450 |8762 |8825 |  63 | 12 |   1 |   0 |-9.722723e+06 |-9.737680e+06 |   0.15%| unknown
 46.2s|     1 |     0 |  2998 |     - |   166M |   0 |8450 |8762 |8829 |  67 | 13 |   1 |   0 |-9.722733e+06 |-9.737680e+06 |   0.15%| unknown
 46.4s|     1 |     0 |  3042 |     - |   167M |   0 |8450 |8762 |8834 |  72 | 14 |   1 |   0 |-9.722740e+06 |-9.737680e+06 |   0.15%| unknown
 46.7s|     1 |     0 |  3099 |     - |   168M |   0 |8450 |8762 |8837 |  75 | 15 |   1 |   0 |-9.722744e+06 |-9.737680e+06 |   0.15%| unknown
 47.0s|     1 |     0 |  3235 |     - |   169M |   0 |8450 |8762 |8841 |  79 | 16 |   1 |   0 |-9.722755e+06 |-9.737680e+06 |   0.15%| unknown
d47.5s|     1 |     0 |  4912 |     - |farkasdi|   0 |8450 |8762 |8841 |   0 | 16 |   1 |   0 |-9.722755e+06 |-9.725812e+06 |   0.03%| unknown
d48.2s|     1 |     0 |  8223 |     - |conflict|   0 |8450 |8762 |8841 |   0 | 16 |   1 |   0 |-9.722755e+06 |-9.725413e+06 |   0.03%| unknown
 50.2s|     1 |     0 |  8223 |     - |   170M |   0 |8450 |8762 |8841 |  79 | 16 |   1 |   0 |-9.722755e+06 |-9.725413e+06 |   0.03%| unknown
 50.4s|     1 |     0 |  8296 |     - |   171M |   0 |8450 |8762 |8844 |  82 | 17 |   1 |   0 |-9.722770e+06 |-9.725413e+06 |   0.03%| unknown
 50.5s|     1 |     0 |  8316 |     - |   171M |   0 |8450 |8762 |8845 |  83 | 18 |   1 |   0 |-9.722770e+06 |-9.725413e+06 |   0.03%| unknown
 54.2s|     1 |     2 |  8316 |     - |   171M |   0 |8450 |8762 |8845 |  83 | 18 |   1 |  20 |-9.722940e+06 |-9.725413e+06 |   0.03%| unknown
*75.4s|    15 |    10 | 12431 | 650.2 |strongbr|   7 |8450 |8774 |8827 |  83 |  1 |  13 | 367 |-9.723202e+06 |-9.724694e+06 |   0.02%|   8.23%
 95.0s|   100 |    13 | 23469 | 203.4 |   187M |  10 |8450 |8814 |8832 |  93 |  1 |  53 | 694 |-9.723394e+06 |-9.724694e+06 |   0.01%|  34.84%
*99.9s|   106 |    13 | 23913 | 196.0 |    LP  |  12 |8450 |8814 |8839 | 108 |  2 |  53 | 694 |-9.723394e+06 |-9.724629e+06 |   0.01%|  34.92%
 time | node  | left  |LP iter|LP it/n|mem/heur|mdpt |vars |cons |rows |cuts |sepa|confs|strbr|  dualbound   | primalbound  |  gap   | compl. 
* 100s|   107 |    12 | 23967 | 194.7 |    LP  |  12 |8450 |8814 |8839 | 108 |  2 |  53 | 694 |-9.723394e+06 |-9.724621e+06 |   0.01%|  34.93%
* 102s|   130 |    13 | 26329 | 178.3 |    LP  |  12 |8450 |8815 |8828 | 108 |  2 |  54 | 714 |-9.723420e+06 |-9.724458e+06 |   0.01%|  45.28%
  107s|   200 |     3 | 33581 | 152.0 |   199M |  12 |8450 |8821 |8828 | 108 |  1 |  60 | 749 |-9.723834e+06 |-9.724458e+06 |   0.01%|  81.11%

SCIP Status        : problem is solved [optimal solution found]
Solving Time (sec) : 108.64
Solving Nodes      : 223
Primal Bound       : -9.72445794767622e+06 (124 solutions)
Dual Bound         : -9.72445794767622e+06
Gap                : 0.00 %
Solve Status: optimal
Solve Time: 108.67 seconds
Objective Value: -9724457.95
